TCS_Benchmarks/redos_fix/regexlib1_output_distinct_1286_1285_8_0.txt
((.|\n)*)(.*)
((.|\n)*)(selected(.|\n)*&gt;)(.*)